NAME:13_HardATSPLIB_13
TYPE: ATSP
DIMENSION: 13
EDGE_WEIGHT_TYPE: EXPLICIT
EDGE_WEIGHT_FORMAT: FULL_MATRIX
EDGE_WEIGHT_SECTION
0	18	39	18	39	4	4	8	32	12	12	12	16
10	0	29	0	49	14	10	10	42	10	6	2	2
49	39	0	35	84	21	49	49	21	49	45	41	41
14	32	49	0	53	14	18	22	42	26	26	26	30
21	35	0	35	0	21	21	25	21	29	29	29	33
84	74	35	70	63	0	84	84	28	84	80	76	76
0	14	39	14	39	4	0	4	32	8	8	8	12
0	10	39	10	39	4	0	0	32	4	4	4	8
56	45	7	42	63	0	56	56	0	56	52	48	48
0	6	35	6	39	4	0	0	32	0	0	0	4
4	6	35	6	43	8	4	4	36	4	0	0	4
8	6	35	6	47	12	8	8	40	8	4	0	4
8	2	30	2	47	12	8	8	40	8	4	0	0
